&SYSTEM ibrav=0 nat=12 ntyp=2

CELL_PARAMETERS angstrom
    5.47000000   0.00000000   0.00000000
    0.00000000   5.47000000   0.00000000
    0.00000000   0.00000000   5.47000000

ATOMIC_SPECIES
   O     15.999  O.pbe-n-kjpaw_psl.0.1.UPF
  Ce    140.116  Ce.GGA-PBE-paw-v1.0.UPF

ATOMIC_POSITIONS crystal
  Ce 0.00000000 0.00000000 0.00000000
  Ce 0.00000000 0.50000000 0.50000000
  Ce 0.50000000 0.00000000 0.50000000
  Ce 0.50000000 0.50000000 0.00000000
   O 0.25000000 0.25000000 0.25000000
   O 0.25000000 0.25000000 0.75000000
   O 0.25000000 0.75000000 0.25000000
   O 0.25000000 0.75000000 0.75000000
   O 0.75000000 0.25000000 0.25000000
   O 0.75000000 0.25000000 0.75000000
   O 0.75000000 0.75000000 0.25000000
   O 0.75000000 0.75000000 0.75000000
